67
120
96	3
95	2
94	3
92	4
91	3
90	6
89	4
88	3
87	7
86	3
85	3
84	4
83	2
82	3
81	3
80	1
79	4
78	1
76	3
75	4
74	3
72	2
71	2
69	2
68	2
67	2
66	1
65	3
64	1
63	1
62	3
61	2
60	2
59	2
58	2
57	5
56	3
55	6
54	3
53	2
52	2
51	1
50	2
49	3
48	1
47	4
46	5
43	4
42	1
41	4
40	1
39	5
38	1
37	7
36	4
35	3
34	2
33	1
32	4
31	3
30	7
29	6
28	2
27	3
26	1
25	5
24	3
